sing20221010.12
TTAA  60111 48698
99008 28457 27502 00099 27856 27004 92785 21831 32506
85517 18457 18512 70163 09847 26014 50588 05713 20506
40759 16109 08510 30970 30557 09525 25097 40758 08531
20244 53359 09041 15423 69159 08541 10657 73362 07035
88112 81557 10062
77117 10064 41944=
TTCC  60112 48698
70865 76163 05521 50069 63981 27521 30387 57184 30035
20646 52786 26539
88780 77961 19002 88524 65979 27016
77999=
TTDD  6011/ 48698
11969 70963 22780 77961 33735 78361 44683 75962 55661 69567
66633 63571 77604 60774 88524 65979 99493 61583 11455 59984
22414 62983 33374 58784 44313 59984 55297 56385 66264 57184
77195 52786 88183 48187 99160 44588 11128 46387
21212 11950 04521 22898 35516 33855 34508 44792 27004 55774
16504 66713 06016 77692 05523 88631 11512 99606 21008 11577
27016 22527 27016 33469 29021 44439 25527 55354 31033 66288
29529 77246 26537 88128 26537=
